50, 12597
371, 640
210, 26
267, 276
937, 224
649, 737
610, 677
172, 893
730, 87
164, 422
380, 30
990, 219
640, 506
557, 27
685, 199
843, 650
776, 545
230, 221
33, 590
316, 810
268, 7
211, 806
943, 699
877, 341
315, 156
656, 958
396, 337
915, 93
459, 97
265, 848
247, 604
562, 808
263, 730
585, 537
898, 974
400, 379
220, 553
998, 830
510, 619
91, 862
48, 578
110, 705
628, 46
793, 228
423, 290
64, 80
382, 233
997, 102
530, 278
972, 636
861, 365
